131
1000
141
226
104
162
19
110
84
102
30
184
150
117
13
100
225
194
205
129
80
105
98
44
51
82
130
203
47
13
177
21
50
115
40
66
234
7
54
86
153
5
25
98
153
24
40
83
244
185
172
31
92
141
129
142
49
131
58
63
48
55
171
203
206
20
81
187
31
220
8
76
69
128
67
219
25
79
169
86
138
70
166
190
243
238
205
224
61
236
69
47
54
153
118
218
247
108
90
122
104
169
41
105
236
119
238
105
1
10
47
6
136
141
239
187
77
89
66
37
78
241
36
88
57
230
68
74
172
247
69
211
115
